Version identifier: 22.1.0.0 | 2022-03-09 | 1a383f8ce
CPXPARAM_Threads                                 1
CPXPARAM_MIP_Strategy_VariableSelect             3
CPXPARAM_TimeLimit                               599.67996029899996
Tried aggregator 1 time.
MIP Presolve eliminated 13 rows and 0 columns.
MIP Presolve modified 2 coefficients.
Reduced MIP has 588 rows, 2400 columns, and 24722 nonzeros.
Reduced MIP has 2400 binaries, 0 generals, 0 SOSs, and 0 indicators.
Presolve time = 0.03 sec. (14.95 ticks)
Probing time = 0.00 sec. (3.65 ticks)
Tried aggregator 1 time.
Detecting symmetries...
Reduced MIP has 588 rows, 2400 columns, and 24722 nonzeros.
Reduced MIP has 2400 binaries, 0 generals, 0 SOSs, and 0 indicators.
Presolve time = 0.02 sec. (17.38 ticks)
Probing time = 0.00 sec. (3.65 ticks)
Clique table members: 382.
MIP emphasis: balance optimality and feasibility.
MIP search method: dynamic search.
Parallel mode: none, using 1 thread.
Root relaxation solution time = 0.14 sec. (131.86 ticks)

        Nodes                                         Cuts/
   Node  Left     Objective  IInf  Best Integer    Best Bound    ItCnt     Gap

      0     0        0.0000   454                      0.0000     1255         
      0     0        0.0000   128                     Cuts: 2     1267         
      0     0        0.0000   254                    Cuts: 39     2167         
*     0+    0                            0.0000        0.0000             0.00%
      0     0        cutoff              0.0000        0.0000     2167    0.00%
Elapsed time = 1.74 sec. (1790.81 ticks, tree = 0.01 MB, solutions = 1)

Clique cuts applied:  2
Zero-half cuts applied:  11
Lift and project cuts applied:  1
Gomory fractional cuts applied:  2

Root node processing (before b&c):
  Real time             =    1.74 sec. (1790.97 ticks)
Sequential b&c:
  Real time             =    0.00 sec. (0.00 ticks)
                          ------------
Total (root+branch&cut) =    1.74 sec. (1790.97 ticks)
Version identifier: 22.1.0.0 | 2022-03-09 | 1a383f8ce
CPXPARAM_Threads                                 1
CPXPARAM_MIP_Strategy_VariableSelect             3
CPXPARAM_TimeLimit                               597.915261988
Tried aggregator 1 time.
MIP Presolve eliminated 13 rows and 0 columns.
MIP Presolve modified 2 coefficients.
Reduced MIP has 600 rows, 2450 columns, and 25250 nonzeros.
Reduced MIP has 2450 binaries, 0 generals, 0 SOSs, and 0 indicators.
Presolve time = 0.02 sec. (15.27 ticks)
Probing time = 0.00 sec. (3.64 ticks)
Tried aggregator 1 time.
Detecting symmetries...
Reduced MIP has 600 rows, 2450 columns, and 25250 nonzeros.
Reduced MIP has 2450 binaries, 0 generals, 0 SOSs, and 0 indicators.
Presolve time = 0.02 sec. (17.74 ticks)
Probing time = 0.00 sec. (3.64 ticks)
Clique table members: 390.
MIP emphasis: balance optimality and feasibility.
MIP search method: dynamic search.
Parallel mode: none, using 1 thread.
Root relaxation solution time = 0.14 sec. (161.32 ticks)

        Nodes                                         Cuts/
   Node  Left     Objective  IInf  Best Integer    Best Bound    ItCnt     Gap

      0     0        0.0000   503                      0.0000     1358         
      0     0        0.0000   178                     Cuts: 6     1697         
      0     2        0.0000   132                      0.0000     1697         
Elapsed time = 4.60 sec. (5071.20 ticks, tree = 0.01 MB, solutions = 0)
      1     3        0.0000   420                      0.0000     4531         
      2     4        0.0000   403                      0.0000     5941         
      3     5        0.0000   392                      0.0000     7798         
      4     6        0.0000   384                      0.0000    10049         
      6     8        0.0000   388                      0.0000    10523         
      8    10        0.0000   387                      0.0000    10779         
     10    12        0.0000   353                      0.0000    12883         
     13    13        0.0000   326                      0.0000    13771         
     15    15        0.0000   334                      0.0000    14538         
     20    18        0.0000   269                      0.0000    17243         
Elapsed time = 8.21 sec. (9195.43 ticks, tree = 0.02 MB, solutions = 0)
     29    23        0.0000    72                      0.0000    25549         
     40    21        0.0000   227                      0.0000    35061         
     51    22        0.0000   146                      0.0000    47222         
     65    22        0.0000   106                      0.0000    54392         
     72    21    infeasible                            0.0000    67125         
     85    22        0.0000   180                      0.0000    76815         
     98    26        0.0000    99                      0.0000    92070         
    110    24    infeasible                            0.0000   101552         
    128    24        0.0000   140                      0.0000   108014         
    145    23    infeasible                            0.0000   112009         
Elapsed time = 17.86 sec. (19155.01 ticks, tree = 0.03 MB, solutions = 0)
    160    24        0.0000    38                      0.0000   115457         
    179    21        0.0000   204                      0.0000   120397         
    196    22        0.0000   159                      0.0000   123930         
    214    22    infeasible                            0.0000   127727         
    231    23    infeasible                            0.0000   132443         
    251    25        0.0000   145                      0.0000   136112         
    268    24    infeasible                            0.0000   140597         
    288    20    infeasible                            0.0000   145118         
    300    22        0.0000   177                      0.0000   147717         
    316    26    infeasible                            0.0000   152558         
Elapsed time = 27.01 sec. (29080.47 ticks, tree = 0.04 MB, solutions = 0)
    331    23        0.0000   187                      0.0000   158127         
    347    25    infeasible                            0.0000   161419         
    364    25    infeasible                            0.0000   165158         
    383    20    infeasible                            0.0000   170358         
    397    26        0.0000   178                      0.0000   172433         
    413    30        0.0000   143                      0.0000   175475         
    433    32        0.0000   130                      0.0000   179287         
    456    27    infeasible                            0.0000   184117         
    474    29        0.0000   130                      0.0000   188343         
    492    29        0.0000   140                      0.0000   192592         
Elapsed time = 36.57 sec. (38923.48 ticks, tree = 0.07 MB, solutions = 0)
    511    30        0.0000   117                      0.0000   196571         
    531    31        0.0000   121                      0.0000   200034         
    556    28        0.0000   168                      0.0000   203540         
    573    28    infeasible                            0.0000   207646         
    591    28        0.0000   165                      0.0000   212019         
    609    28    infeasible                            0.0000   215974         
    625    26    infeasible                            0.0000   220553         
    641    28        0.0000   153                      0.0000   224003         
    659    26    infeasible                            0.0000   228485         
    676    29        0.0000   156                      0.0000   231467         
Elapsed time = 46.19 sec. (48745.69 ticks, tree = 0.07 MB, solutions = 0)
    695    28        0.0000   174                      0.0000   234976         
    712    27    infeasible                            0.0000   239442         
    730    27        0.0000   160                      0.0000   243645         
    744    29        0.0000   157                      0.0000   248379         
    762    29        0.0000   152                      0.0000   252423         
    781    28    infeasible                            0.0000   256418         
    799    28    infeasible                            0.0000   260448         
    817    28        0.0000   153                      0.0000   264099         
    835    28        0.0000   150                      0.0000   268238         
    853    30        0.0000   147                      0.0000   271830         
Elapsed time = 55.77 sec. (58590.22 ticks, tree = 0.08 MB, solutions = 0)
    873    30        0.0000   118                      0.0000   275791         
    891    28    infeasible                            0.0000   280296         
    910    25    infeasible                            0.0000   284578         
    924    27    infeasible                            0.0000   289224         
    939    28        0.0000   141                      0.0000   293836         
    958    27        0.0000   147                      0.0000   297912         
    977    28        0.0000   150                      0.0000   301425         
    994    29        0.0000   153                      0.0000   305329         
   1012    26        0.0000   165                      0.0000   310133         
   1027    27    infeasible                            0.0000   314117         
Elapsed time = 65.28 sec. (68517.43 ticks, tree = 0.07 MB, solutions = 0)
   1046    26    infeasible                            0.0000   318529         
   1064    28    infeasible                            0.0000   322081         
   1083    27        0.0000   156                      0.0000   326010         
   1099    29    infeasible                            0.0000   330181         
   1118    30        0.0000    85                      0.0000   335660         
   1137    31        0.0000   150                      0.0000   342651         
   1158    32    infeasible                            0.0000   349582         
   1174    30        0.0000   120                      0.0000   357551         
   1195    29        0.0000   134                      0.0000   361693         
   1213    29    infeasible                            0.0000   366161         
Elapsed time = 74.98 sec. (78293.69 ticks, tree = 0.08 MB, solutions = 0)
   1232    30        0.0000   130                      0.0000   370181         
   1252    31        0.0000   123                      0.0000   373838         
   1273    29        0.0000   149                      0.0000   377949         
   1292    26    infeasible                            0.0000   381798         
   1307    28        0.0000   147                      0.0000   385860         
   1328    27        0.0000   155                      0.0000   389611         
   1345    28        0.0000   131                      0.0000   393717         
   1365    26        0.0000    74                      0.0000   397803         
   1383    26        0.0000   150                      0.0000   401878         
   1401    28    infeasible                            0.0000   405308         
Elapsed time = 84.57 sec. (88208.37 ticks, tree = 0.07 MB, solutions = 0)
   1420    27        0.0000   161                      0.0000   409176         
   1436    31        0.0000    44                      0.0000   413219         
   1456    27    infeasible                            0.0000   418742         
   1477    26        0.0000   121                      0.0000   422803         
   1495    26    infeasible                            0.0000   426420         
   1512    26    infeasible                            0.0000   430528         
   1530    26        0.0000   158                      0.0000   434237         
   1548    28        0.0000   132                      0.0000   438401         
   1567    27        0.0000   153                      0.0000   442737         
   1637    25        0.0000   115                      0.0000   459939         
Elapsed time = 96.83 sec. (100917.49 ticks, tree = 0.05 MB, solutions = 0)
   1705    24        0.0000   188                      0.0000   474919         
   1772    27        0.0000   176                      0.0000   488225         
   1839    22        0.0000   199                      0.0000   504315         
   1905    28        0.0000   128                      0.0000   520065         
   1971    29        0.0000   128                      0.0000   537530         
   2052    27        0.0000    67                      0.0000   553487         
   2123    30        0.0000    48                      0.0000   570419         
   2198    25        0.0000   148                      0.0000   589277         
   2261    26        0.0000    72                      0.0000   610400         
   2328    29        0.0000    48                      0.0000   633234         
Elapsed time = 133.70 sec. (139513.83 ticks, tree = 0.07 MB, solutions = 0)
   2397    28        0.0000   141                      0.0000   649494         
   2464    29        0.0000    83                      0.0000   669016         
   2533    24    infeasible                            0.0000   688427         
   2596    25    infeasible                            0.0000   708943         
   2664    28        0.0000   107                      0.0000   724162         
   2739    23        0.0000   131                      0.0000   741072         
   2798    22        0.0000   162                      0.0000   757990         
   2850    28        0.0000   145                      0.0000   777484         

Performing restart 1

Repeating presolve.
Tried aggregator 1 time.
MIP Presolve modified 7200 coefficients.
Reduced MIP has 600 rows, 2450 columns, and 23810 nonzeros.
Reduced MIP has 2450 binaries, 0 generals, 0 SOSs, and 0 indicators.
Presolve time = 0.02 sec. (24.41 ticks)
Tried aggregator 1 time.
Reduced MIP has 600 rows, 2450 columns, and 23810 nonzeros.
Reduced MIP has 2450 binaries, 0 generals, 0 SOSs, and 0 indicators.
Presolve time = 0.02 sec. (17.56 ticks)
Represolve time = 0.13 sec. (90.06 ticks)
   2874     0        0.0000   266                     Cuts: 2   795505         
   2874     0        0.0000   463                   Cuts: 134   796239         
   2874     0        0.0000   315                 ZeroHalf: 7   796907         
   2874     0        0.0000   344                     Cuts: 2   797667         
   2874     0        0.0000   267                     Cuts: 5   798588         
   2874     0        0.0000   481                     Cuts: 5   799827         
   2874     0        0.0000   186                     Cuts: 3   800436         
   2874     0        0.0000   473                    Cuts: 20   802082         
   2874     2        0.0000    77                      0.0000   802082         
   2886    14        0.0000   328                      0.0000   816073         
Elapsed time = 179.15 sec. (186638.32 ticks, tree = 0.05 MB, solutions = 0)
   2903    31        0.0000   205                      0.0000   835719         
   2943    41    infeasible                            0.0000   872954         
   2987    41        0.0000   188                      0.0000   900899         
   3014    56        0.0000   257                      0.0000   913493         
   3059    73    infeasible                            0.0000   924621         
   3121    78        0.0000    64                      0.0000   940716         
   3182    73        0.0000    61                      0.0000   959262         
   3245    72        0.0000    46                      0.0000   976326         
   3305    70    infeasible                            0.0000   993510         
   3358    71        0.0000   115                      0.0000  1009895         
Elapsed time = 216.31 sec. (225527.09 ticks, tree = 0.37 MB, solutions = 0)
   3412    73        0.0000    50                      0.0000  1026818         
   3465    72    infeasible                            0.0000  1043982         
   3522    75        0.0000    52                      0.0000  1061440         
   3580    75        0.0000    73                      0.0000  1079634         
   3647    80    infeasible                            0.0000  1095985         
   3712    77        0.0000    79                      0.0000  1113451         
   3783    74        0.0000    92                      0.0000  1129491         
   3832    75        0.0000    67                      0.0000  1141722         
   3889    78        0.0000    62                      0.0000  1158190         
   3942    74    infeasible                            0.0000  1176708         
Elapsed time = 270.39 sec. (282189.01 ticks, tree = 0.39 MB, solutions = 0)
   3995    75    infeasible                            0.0000  1193573         
   4047    75        0.0000   117                      0.0000  1210720         
   4109    77        0.0000   116                      0.0000  1225808         
   4170    76    infeasible                            0.0000  1242647         
   4233    73        0.0000   102                      0.0000  1259681         
   4284    76    infeasible                            0.0000  1276791         

Performing restart 2

Repeating presolve.
Tried aggregator 1 time.
Reduced MIP has 600 rows, 2450 columns, and 23810 nonzeros.
Reduced MIP has 2450 binaries, 0 generals, 0 SOSs, and 0 indicators.
Presolve time = 0.02 sec. (14.08 ticks)
Tried aggregator 1 time.
Reduced MIP has 600 rows, 2450 columns, and 23810 nonzeros.
Reduced MIP has 2450 binaries, 0 generals, 0 SOSs, and 0 indicators.
Presolve time = 0.02 sec. (17.56 ticks)
Represolve time = 1.13 sec. (359.03 ticks)
   4311     0        0.0000   331                    Cuts: 11  1288104         
   4311     0        0.0000   320                     Cuts: 4  1289007         
   4311     0        0.0000   268                 ZeroHalf: 2  1289562         
   4311     0        0.0000   178                 ZeroHalf: 2  1289810         
   4311     0        0.0000   283                   Cuts: 123  1290549         
   4311     0        0.0000   177                  Cliques: 1  1290643         
   4311     0        0.0000   351                   Cuts: 136  1292146         
   4311     0        0.0000   116                  Cliques: 1  1292707         
   4311     0        0.0000   413                     Cuts: 3  1293932         
   4311     0        0.0000   425                    Cuts: 15  1294882         
   4311     0        0.0000   215                     Cuts: 3  1295500         
   4311     0        0.0000   342                    Cuts: 14  1296518         
   4311     0        0.0000   169                 ZeroHalf: 7  1296698         
   4311     0        0.0000   252                    Cuts: 37  1297732         
   4311     2        0.0000   205                      0.0000  1297732         
   4325    12        0.0000   330                      0.0000  1316944         
   4358    26        0.0000   151                      0.0000  1346091         
   4389    31        0.0000   116                      0.0000  1382941         
Elapsed time = 329.08 sec. (342161.10 ticks, tree = 0.07 MB, solutions = 0)
   4419    29        0.0000   369                      0.0000  1397739         
   4437    47        0.0000   411                      0.0000  1412675         
   4460    58        0.0000   268                      0.0000  1430007         
   4489    69        0.0000   230                      0.0000  1456270         
   4535    69    infeasible                            0.0000  1498007         
   4599    69        0.0000   219                      0.0000  1543379         
   4654    70        0.0000   178                      0.0000  1590477         
   4710    68        0.0000   236                      0.0000  1634404         
   4767    67        0.0000   193                      0.0000  1676876         
   4815    69        0.0000   237                      0.0000  1716546         
Elapsed time = 368.26 sec. (380851.58 ticks, tree = 0.09 MB, solutions = 0)
   4881    69        0.0000   234                      0.0000  1755789         
   4921    85        0.0000   213                      0.0000  1785492         
   4983    85        0.0000   207                      0.0000  1830512         
   5046    86        0.0000   162                      0.0000  1872403         
   5109    89        0.0000   154                      0.0000  1906906         
   5167    85        0.0000   212                      0.0000  1957695         
   5232    86    infeasible                            0.0000  2006995         
   5301    89        0.0000   203                      0.0000  2043863         
   5373    89        0.0000   171                      0.0000  2082173         
   5436    88        0.0000   207                      0.0000  2134291         
Elapsed time = 409.32 sec. (419457.92 ticks, tree = 0.11 MB, solutions = 0)
   5499    87    infeasible                            0.0000  2176070         
   5557    89        0.0000   233                      0.0000  2222486         
   5621    89        0.0000   216                      0.0000  2264410         
   5690    86    infeasible                            0.0000  2302741         
   5752    86    infeasible                            0.0000  2344522         
   5811    87        0.0000   145                      0.0000  2406854         
   5866    88        0.0000   144                      0.0000  2473996         
   5934    86    infeasible                            0.0000  2533091         
   5994    88        0.0000   215                      0.0000  2578960         
   6063    89        0.0000   202                      0.0000  2619936         
Elapsed time = 450.66 sec. (458029.43 ticks, tree = 0.11 MB, solutions = 0)
   6128    88        0.0000   151                      0.0000  2662036         
   6181    89        0.0000   193                      0.0000  2719822         
   6237    85    infeasible                            0.0000  2772377         
   6293    83        0.0000   239                      0.0000  2822318         
   6349    87        0.0000   144                      0.0000  2876646         
   6408    86        0.0000   128                      0.0000  2939474         
   6464    84        0.0000   204                      0.0000  2989579         
   6504    86        0.0000   149                      0.0000  3053357         
   6554    82    infeasible                            0.0000  3113588         
   6599    83        0.0000   151                      0.0000  3183258         
Elapsed time = 492.25 sec. (496500.96 ticks, tree = 0.11 MB, solutions = 0)
   6656    84    infeasible                            0.0000  3235807         
   6708    86        0.0000   142                      0.0000  3299850         
   6756    86    infeasible                            0.0000  3365379         
   6819    85    infeasible                            0.0000  3424355         
   6889    85    infeasible                            0.0000  3481874         
   6951    87        0.0000   214                      0.0000  3529748         
   7016    88    infeasible                            0.0000  3581480         
   7083    85        0.0000   165                      0.0000  3634379         
   7142    90        0.0000   111                      0.0000  3691460         
   7202    88        0.0000   171                      0.0000  3757121         
Elapsed time = 534.20 sec. (534989.95 ticks, tree = 0.11 MB, solutions = 0)
   7256    86        0.0000   182                      0.0000  3816954         
   7316    86        0.0000   136                      0.0000  3867428         
   7372    84        0.0000   158                      0.0000  3927834         
   7430    82    infeasible                            0.0000  3990697         
   7491    83    infeasible                            0.0000  4055255         
   7553    83        0.0000   158                      0.0000  4120343         
   7612    82    infeasible                            0.0000  4177730         
   7659    83    infeasible                            0.0000  4240242         
   7721    83        0.0000   168                      0.0000  4295274         
   7791    85        0.0000   157                      0.0000  4350504         
Elapsed time = 576.61 sec. (573584.01 ticks, tree = 0.11 MB, solutions = 0)
   7868    84        0.0000   144                      0.0000  4396569         
   7927    85    infeasible                            0.0000  4457801         
   7973    85        0.0000   157                      0.0000  4522750         
   8037    83        0.0000   185                      0.0000  4586327         

Clique cuts applied:  32
Cover cuts applied:  1
Mixed integer rounding cuts applied:  1
Zero-half cuts applied:  30
Lift and project cuts applied:  1

Root node processing (before b&c):
  Real time             =    4.58 sec. (5061.01 ticks)
Sequential b&c:
  Real time             =  593.33 sec. (587895.24 ticks)
                          ------------
Total (root+branch&cut) =  597.92 sec. (592956.25 ticks)
Primal:	96
Dual:	97
Status:	Optimal
Time:	599.695
Sequence:
	19
	12
	0
	6
	1
	7
	19
	6
	3
	6
	1
	13
	1
	4
	0
	9
	4
	16
	12
	6
	10
	9
	16
	4
	17
	7
	1
	22
	3
	4
	17
	7
	19
	4
	5
	4
	17
	13
	1
	4
	5
	6
	19
	7
	1
	6
	3
	14
	0
	12
	6
	10
	23
	1
	8
	15
	4
	24
	18
	6
	10
	9
	1
	24
	17
	12
	0
	4
	11
	8
	1
	12
	0
	4
	10
	2
	10
	4
	0
	12
	4
	16
	9
	1
	8
	18
	4
	0
	14
	17
	7
	1
	4
	20
	4
	15
